NAME : gaussian_missing_edges_with_de_nei2_nei3_random45.3135.tour
COMMENT : Length = 3135
COMMENT : Found by LKH [Keld Helsgaun] Fri Jul 12 17:07:41 2024
TYPE : TOUR
DIMENSION : 45
TOUR_SECTION
1
20
11
23
7
39
8
41
21
17
5
19
18
35
6
33
29
9
14
36
44
16
10
4
43
13
31
26
32
2
45
30
42
3
27
24
22
28
38
12
15
40
34
37
25
-1
EOF
